NAME: cluster_11
TYPE: TSP
DIMENSION: 21
EDGE_WEIGHT_TYPE: EUC_2D
NODE_COORD_SECTION
1 12000.00 16000.00
2 10644.93 3034.20
3 10371.67 7318.33
4 1040.07 3820.70
5 8474.78 4979.52
6 12406.02 5734.76
7 12081.78 2424.86
8 11152.29 2859.98
9 13599.41 8692.92
10 12825.13 7189.42
11 15331.73 9685.08
12 9702.65 4045.84
13 6787.55 3237.77
14 14227.02 7454.77
15 2591.28 2268.72
16 10110.32 6118.17
17 4023.47 2293.21
18 12809.31 4604.12
19 12188.47 7592.57
20 13510.09 4684.09
21 10167.54 6908.47
EOF
